% Instance for pentominoes model generated using https://github.com/zayenz/minizinc-pentominoes-generator
% Instance generated for board size 10 with 10 tiles using 4711 as seed
% Generated board
%    7777766666
%    bb77776666
%    bbb7777663
%    bbbbb77633
%    11bbb53333
%    1155553334
%    1118553334
%    1118555999
%    2188888999
%    8888888999

size = 10;
tiles = 10;
expressions = [
    "( ([2 3 4 5 6 7 8 9 10 11]* 1{2} [2 3 4 5 6 7 8 9 10 11]{8} [2 3 4 5 6 7 8 9 10 11] 1{2} [2 3 4 5 6 7 8 9 10 11]{8} [2 3 4 5 6 7 8 9 10 11] 1{3} [2 3 4 5 6 7 8 9 10 11]{7} [2 3 4 5 6 7 8 9 10 11] 1{3} [2 3 4 5 6 7 8 9 10 11]{7} [2 3 4 5 6 7 8 9 10 11] [2 3 4 5 6 7 8 9 10 11]{1} 1{1} [2 3 4 5 6 7 8 9 10 11]*) | ([2 3 4 5 6 7 8 9 10 11]* 1{4} [2 3 4 5 6 7 8 9 10 11]{4} [2 3 4 5 6 7 8 9 10 11] [2 3 4 5 6 7 8 9 10 11]{1} 1{5} [2 3 4 5 6 7 8 9 10 11]{4} [2 3 4 5 6 7 8 9 10 11] [2 3 4 5 6 7 8 9 10 11]{2} 1{2} [2 3 4 5 6 7 8 9 10 11]*) | ([2 3 4 5 6 7 8 9 10 11]* 1{1} [2 3 4 5 6 7 8 9 10 11]{1} [2 3 4 5 6 7 8 9 10 11] [2 3 4 5 6 7 8 9 10 11]{7} 1{3} [2 3 4 5 6 7 8 9 10 11] [2 3 4 5 6 7 8 9 10 11]{7} 1{3} [2 3 4 5 6 7 8 9 10 11] [2 3 4 5 6 7 8 9 10 11]{8} 1{2} [2 3 4 5 6 7 8 9 10 11] [2 3 4 5 6 7 8 9 10 11]{8} 1{2} [2 3 4 5 6 7 8 9 10 11]*) | ([2 3 4 5 6 7 8 9 10 11]* 1{2} [2 3 4 5 6 7 8 9 10 11]{2} [2 3 4 5 6 7 8 9 10 11] [2 3 4 5 6 7 8 9 10 11]{4} 1{5} [2 3 4 5 6 7 8 9 10 11]{1} [2 3 4 5 6 7 8 9 10 11] [2 3 4 5 6 7 8 9 10 11]{4} 1{4} [2 3 4 5 6 7 8 9 10 11]*) | ([2 3 4 5 6 7 8 9 10 11]* 1{2} [2 3 4 5 6 7 8 9 10 11] [2 3 4 5 6 7 8 9 10 11]{8} 1{2} [2 3 4 5 6 7 8 9 10 11] [2 3 4 5 6 7 8 9 10 11]{7} 1{3} [2 3 4 5 6 7 8 9 10 11] [2 3 4 5 6 7 8 9 10 11]{7} 1{3} [2 3 4 5 6 7 8 9 10 11] [2 3 4 5 6 7 8 9 10 11]{8} 1{1} [2 3 4 5 6 7 8 9 10 11]*) | ([2 3 4 5 6 7 8 9 10 11]* 1{4} [2 3 4 5 6 7 8 9 10 11]{2} [2 3 4 5 6 7 8 9 10 11] [2 3 4 5 6 7 8 9 10 11]{4} 1{5} [2 3 4 5 6 7 8 9 10 11]{1} [2 3 4 5 6 7 8 9 10 11] [2 3 4 5 6 7 8 9 10 11]{6} 1{2} [2 3 4 5 6 7 8 9 10 11]*) | ([2 3 4 5 6 7 8 9 10 11]* 1{1} [2 3 4 5 6 7 8 9 10 11]{8} [2 3 4 5 6 7 8 9 10 11] 1{3} [2 3 4 5 6 7 8 9 10 11]{7} [2 3 4 5 6 7 8 9 10 11] 1{3} [2 3 4 5 6 7 8 9 10 11]{7} [2 3 4 5 6 7 8 9 10 11] 1{2} [2 3 4 5 6 7 8 9 10 11]{8} [2 3 4 5 6 7 8 9 10 11] 1{2} [2 3 4 5 6 7 8 9 10 11]*) | ([2 3 4 5 6 7 8 9 10 11]* 1{2} [2 3 4 5 6 7 8 9 10 11]{6} [2 3 4 5 6 7 8 9 10 11] [2 3 4 5 6 7 8 9 10 11]{1} 1{5} [2 3 4 5 6 7 8 9 10 11]{4} [2 3 4 5 6 7 8 9 10 11] [2 3 4 5 6 7 8 9 10 11]{2} 1{4} [2 3 4 5 6 7 8 9 10 11]*) )",
    "( ([1 3 4 5 6 7 8 9 10 11]* 2{1} [1 3 4 5 6 7 8 9 10 11]*) )",
    "( ([1 2 4 5 6 7 8 9 10 11]* 3{1} [1 2 4 5 6 7 8 9 10 11] [1 2 4 5 6 7 8 9 10 11]{8} 3{2} [1 2 4 5 6 7 8 9 10 11] [1 2 4 5 6 7 8 9 10 11]{6} 3{4} [1 2 4 5 6 7 8 9 10 11] [1 2 4 5 6 7 8 9 10 11]{6} 3{3} [1 2 4 5 6 7 8 9 10 11]{1} [1 2 4 5 6 7 8 9 10 11] [1 2 4 5 6 7 8 9 10 11]{6} 3{3} [1 2 4 5 6 7 8 9 10 11]*) | ([1 2 4 5 6 7 8 9 10 11]* 3{3} [1 2 4 5 6 7 8 9 10 11]{4} [1 2 4 5 6 7 8 9 10 11] [1 2 4 5 6 7 8 9 10 11]{3} 3{3} [1 2 4 5 6 7 8 9 10 11]{4} [1 2 4 5 6 7 8 9 10 11] [1 2 4 5 6 7 8 9 10 11]{3} 3{4} [1 2 4 5 6 7 8 9 10 11]{3} [1 2 4 5 6 7 8 9 10 11] [1 2 4 5 6 7 8 9 10 11]{5} 3{3} [1 2 4 5 6 7 8 9 10 11]*) | ([1 2 4 5 6 7 8 9 10 11]* 3{3} [1 2 4 5 6 7 8 9 10 11]{6} [1 2 4 5 6 7 8 9 10 11] [1 2 4 5 6 7 8 9 10 11]{1} 3{3} [1 2 4 5 6 7 8 9 10 11]{6} [1 2 4 5 6 7 8 9 10 11] 3{4} [1 2 4 5 6 7 8 9 10 11]{6} [1 2 4 5 6 7 8 9 10 11] 3{2} [1 2 4 5 6 7 8 9 10 11]{8} [1 2 4 5 6 7 8 9 10 11] 3{1} [1 2 4 5 6 7 8 9 10 11]*) | ([1 2 4 5 6 7 8 9 10 11]* 3{3} [1 2 4 5 6 7 8 9 10 11]{5} [1 2 4 5 6 7 8 9 10 11] [1 2 4 5 6 7 8 9 10 11]{3} 3{4} [1 2 4 5 6 7 8 9 10 11]{3} [1 2 4 5 6 7 8 9 10 11] [1 2 4 5 6 7 8 9 10 11]{4} 3{3} [1 2 4 5 6 7 8 9 10 11]{3} [1 2 4 5 6 7 8 9 10 11] [1 2 4 5 6 7 8 9 10 11]{4} 3{3} [1 2 4 5 6 7 8 9 10 11]*) | ([1 2 4 5 6 7 8 9 10 11]* 3{1} [1 2 4 5 6 7 8 9 10 11]{9} [1 2 4 5 6 7 8 9 10 11] 3{2} [1 2 4 5 6 7 8 9 10 11]{8} [1 2 4 5 6 7 8 9 10 11] 3{4} [1 2 4 5 6 7 8 9 10 11]{6} [1 2 4 5 6 7 8 9 10 11] [1 2 4 5 6 7 8 9 10 11]{1} 3{3} [1 2 4 5 6 7 8 9 10 11]{6} [1 2 4 5 6 7 8 9 10 11] [1 2 4 5 6 7 8 9 10 11]{1} 3{3} [1 2 4 5 6 7 8 9 10 11]*) | ([1 2 4 5 6 7 8 9 10 11]* 3{3} [1 2 4 5 6 7 8 9 10 11]{3} [1 2 4 5 6 7 8 9 10 11] [1 2 4 5 6 7 8 9 10 11]{4} 3{3} [1 2 4 5 6 7 8 9 10 11]{3} [1 2 4 5 6 7 8 9 10 11] [1 2 4 5 6 7 8 9 10 11]{3} 3{4} [1 2 4 5 6 7 8 9 10 11]{3} [1 2 4 5 6 7 8 9 10 11] [1 2 4 5 6 7 8 9 10 11]{2} 3{3} [1 2 4 5 6 7 8 9 10 11]*) | ([1 2 4 5 6 7 8 9 10 11]* 3{3} [1 2 4 5 6 7 8 9 10 11]{1} [1 2 4 5 6 7 8 9 10 11] [1 2 4 5 6 7 8 9 10 11]{6} 3{3} [1 2 4 5 6 7 8 9 10 11]{1} [1 2 4 5 6 7 8 9 10 11] [1 2 4 5 6 7 8 9 10 11]{6} 3{4} [1 2 4 5 6 7 8 9 10 11] [1 2 4 5 6 7 8 9 10 11]{8} 3{2} [1 2 4 5 6 7 8 9 10 11] [1 2 4 5 6 7 8 9 10 11]{9} 3{1} [1 2 4 5 6 7 8 9 10 11]*) | ([1 2 4 5 6 7 8 9 10 11]* 3{3} [1 2 4 5 6 7 8 9 10 11]{2} [1 2 4 5 6 7 8 9 10 11] [1 2 4 5 6 7 8 9 10 11]{3} 3{4} [1 2 4 5 6 7 8 9 10 11]{3} [1 2 4 5 6 7 8 9 10 11] [1 2 4 5 6 7 8 9 10 11]{3} 3{3} [1 2 4 5 6 7 8 9 10 11]{4} [1 2 4 5 6 7 8 9 10 11] [1 2 4 5 6 7 8 9 10 11]{3} 3{3} [1 2 4 5 6 7 8 9 10 11]*) )",
    "( ([1 2 3 5 6 7 8 9 10 11]* 4{1} [1 2 3 5 6 7 8 9 10 11] [1 2 3 5 6 7 8 9 10 11]{9} 4{1} [1 2 3 5 6 7 8 9 10 11]*) | ([1 2 3 5 6 7 8 9 10 11]* 4{2} [1 2 3 5 6 7 8 9 10 11]*) | ([1 2 3 5 6 7 8 9 10 11]* 4{1} [1 2 3 5 6 7 8 9 10 11]{9} [1 2 3 5 6 7 8 9 10 11] 4{1} [1 2 3 5 6 7 8 9 10 11]*) )",
    "( ([1 2 3 4 6 7 8 9 10 11]* 5{1} [1 2 3 4 6 7 8 9 10 11]{4} [1 2 3 4 6 7 8 9 10 11] [1 2 3 4 6 7 8 9 10 11]{2} 5{4} [1 2 3 4 6 7 8 9 10 11]{4} [1 2 3 4 6 7 8 9 10 11] [1 2 3 4 6 7 8 9 10 11]{4} 5{2} [1 2 3 4 6 7 8 9 10 11]{4} [1 2 3 4 6 7 8 9 10 11] [1 2 3 4 6 7 8 9 10 11]{4} 5{3} [1 2 3 4 6 7 8 9 10 11]*) | ([1 2 3 4 6 7 8 9 10 11]* 5{1} [1 2 3 4 6 7 8 9 10 11]{5} [1 2 3 4 6 7 8 9 10 11] [1 2 3 4 6 7 8 9 10 11]{4} 5{1} [1 2 3 4 6 7 8 9 10 11]{5} [1 2 3 4 6 7 8 9 10 11] [1 2 3 4 6 7 8 9 10 11]{2} 5{3} [1 2 3 4 6 7 8 9 10 11]{5} [1 2 3 4 6 7 8 9 10 11] [1 2 3 4 6 7 8 9 10 11]{2} 5{4} [1 2 3 4 6 7 8 9 10 11]{4} [1 2 3 4 6 7 8 9 10 11] [1 2 3 4 6 7 8 9 10 11]{2} 5{1} [1 2 3 4 6 7 8 9 10 11]*) | ([1 2 3 4 6 7 8 9 10 11]* 5{3} [1 2 3 4 6 7 8 9 10 11]{4} [1 2 3 4 6 7 8 9 10 11] [1 2 3 4 6 7 8 9 10 11]{4} 5{2} [1 2 3 4 6 7 8 9 10 11]{4} [1 2 3 4 6 7 8 9 10 11] [1 2 3 4 6 7 8 9 10 11]{4} 5{4} [1 2 3 4 6 7 8 9 10 11]{2} [1 2 3 4 6 7 8 9 10 11] [1 2 3 4 6 7 8 9 10 11]{4} 5{1} [1 2 3 4 6 7 8 9 10 11]*) | ([1 2 3 4 6 7 8 9 10 11]* 5{1} [1 2 3 4 6 7 8 9 10 11]{2} [1 2 3 4 6 7 8 9 10 11] [1 2 3 4 6 7 8 9 10 11]{4} 5{4} [1 2 3 4 6 7 8 9 10 11]{2} [1 2 3 4 6 7 8 9 10 11] [1 2 3 4 6 7 8 9 10 11]{5} 5{3} [1 2 3 4 6 7 8 9 10 11]{2} [1 2 3 4 6 7 8 9 10 11] [1 2 3 4 6 7 8 9 10 11]{5} 5{1} [1 2 3 4 6 7 8 9 10 11]{4} [1 2 3 4 6 7 8 9 10 11] [1 2 3 4 6 7 8 9 10 11]{5} 5{1} [1 2 3 4 6 7 8 9 10 11]*) | ([1 2 3 4 6 7 8 9 10 11]* 5{1} [1 2 3 4 6 7 8 9 10 11]{5} [1 2 3 4 6 7 8 9 10 11] [1 2 3 4 6 7 8 9 10 11]{4} 5{4} [1 2 3 4 6 7 8 9 10 11]{2} [1 2 3 4 6 7 8 9 10 11] [1 2 3 4 6 7 8 9 10 11]{4} 5{2} [1 2 3 4 6 7 8 9 10 11]{4} [1 2 3 4 6 7 8 9 10 11] [1 2 3 4 6 7 8 9 10 11]{3} 5{3} [1 2 3 4 6 7 8 9 10 11]*) | ([1 2 3 4 6 7 8 9 10 11]* 5{1} [1 2 3 4 6 7 8 9 10 11]{4} [1 2 3 4 6 7 8 9 10 11] [1 2 3 4 6 7 8 9 10 11]{5} 5{1} [1 2 3 4 6 7 8 9 10 11]{4} [1 2 3 4 6 7 8 9 10 11] [1 2 3 4 6 7 8 9 10 11]{5} 5{3} [1 2 3 4 6 7 8 9 10 11]{2} [1 2 3 4 6 7 8 9 10 11] [1 2 3 4 6 7 8 9 10 11]{4} 5{4} [1 2 3 4 6 7 8 9 10 11]{2} [1 2 3 4 6 7 8 9 10 11] [1 2 3 4 6 7 8 9 10 11]{7} 5{1} [1 2 3 4 6 7 8 9 10 11]*) | ([1 2 3 4 6 7 8 9 10 11]* 5{3} [1 2 3 4 6 7 8 9 10 11]{3} [1 2 3 4 6 7 8 9 10 11] [1 2 3 4 6 7 8 9 10 11]{4} 5{2} [1 2 3 4 6 7 8 9 10 11]{4} [1 2 3 4 6 7 8 9 10 11] [1 2 3 4 6 7 8 9 10 11]{2} 5{4} [1 2 3 4 6 7 8 9 10 11]{4} [1 2 3 4 6 7 8 9 10 11] [1 2 3 4 6 7 8 9 10 11]{5} 5{1} [1 2 3 4 6 7 8 9 10 11]*) | ([1 2 3 4 6 7 8 9 10 11]* 5{1} [1 2 3 4 6 7 8 9 10 11]{7} [1 2 3 4 6 7 8 9 10 11] [1 2 3 4 6 7 8 9 10 11]{2} 5{4} [1 2 3 4 6 7 8 9 10 11]{4} [1 2 3 4 6 7 8 9 10 11] [1 2 3 4 6 7 8 9 10 11]{2} 5{3} [1 2 3 4 6 7 8 9 10 11]{5} [1 2 3 4 6 7 8 9 10 11] [1 2 3 4 6 7 8 9 10 11]{4} 5{1} [1 2 3 4 6 7 8 9 10 11]{5} [1 2 3 4 6 7 8 9 10 11] [1 2 3 4 6 7 8 9 10 11]{4} 5{1} [1 2 3 4 6 7 8 9 10 11]*) )",
    "( ([1 2 3 4 5 7 8 9 10 11]* 6{5} [1 2 3 4 5 7 8 9 10 11] [1 2 3 4 5 7 8 9 10 11]{6} 6{4} [1 2 3 4 5 7 8 9 10 11] [1 2 3 4 5 7 8 9 10 11]{7} 6{2} [1 2 3 4 5 7 8 9 10 11]{1} [1 2 3 4 5 7 8 9 10 11] [1 2 3 4 5 7 8 9 10 11]{7} 6{1} [1 2 3 4 5 7 8 9 10 11]*) | ([1 2 3 4 5 7 8 9 10 11]* 6{1} [1 2 3 4 5 7 8 9 10 11] [1 2 3 4 5 7 8 9 10 11]{8} 6{2} [1 2 3 4 5 7 8 9 10 11] [1 2 3 4 5 7 8 9 10 11]{6} 6{4} [1 2 3 4 5 7 8 9 10 11] [1 2 3 4 5 7 8 9 10 11]{7} 6{3} [1 2 3 4 5 7 8 9 10 11] [1 2 3 4 5 7 8 9 10 11]{8} 6{2} [1 2 3 4 5 7 8 9 10 11]*) | ([1 2 3 4 5 7 8 9 10 11]* 6{1} [1 2 3 4 5 7 8 9 10 11]{7} [1 2 3 4 5 7 8 9 10 11] [1 2 3 4 5 7 8 9 10 11]{1} 6{2} [1 2 3 4 5 7 8 9 10 11]{7} [1 2 3 4 5 7 8 9 10 11] 6{4} [1 2 3 4 5 7 8 9 10 11]{6} [1 2 3 4 5 7 8 9 10 11] 6{5} [1 2 3 4 5 7 8 9 10 11]*) | ([1 2 3 4 5 7 8 9 10 11]* 6{2} [1 2 3 4 5 7 8 9 10 11]{8} [1 2 3 4 5 7 8 9 10 11] 6{3} [1 2 3 4 5 7 8 9 10 11]{7} [1 2 3 4 5 7 8 9 10 11] 6{4} [1 2 3 4 5 7 8 9 10 11]{6} [1 2 3 4 5 7 8 9 10 11] 6{2} [1 2 3 4 5 7 8 9 10 11]{8} [1 2 3 4 5 7 8 9 10 11] 6{1} [1 2 3 4 5 7 8 9 10 11]*) | ([1 2 3 4 5 7 8 9 10 11]* 6{5} [1 2 3 4 5 7 8 9 10 11]{5} [1 2 3 4 5 7 8 9 10 11] 6{4} [1 2 3 4 5 7 8 9 10 11]{6} [1 2 3 4 5 7 8 9 10 11] [1 2 3 4 5 7 8 9 10 11]{1} 6{2} [1 2 3 4 5 7 8 9 10 11]{7} [1 2 3 4 5 7 8 9 10 11] [1 2 3 4 5 7 8 9 10 11]{2} 6{1} [1 2 3 4 5 7 8 9 10 11]*) | ([1 2 3 4 5 7 8 9 10 11]* 6{1} [1 2 3 4 5 7 8 9 10 11]{9} [1 2 3 4 5 7 8 9 10 11] 6{2} [1 2 3 4 5 7 8 9 10 11]{8} [1 2 3 4 5 7 8 9 10 11] 6{4} [1 2 3 4 5 7 8 9 10 11]{6} [1 2 3 4 5 7 8 9 10 11] 6{3} [1 2 3 4 5 7 8 9 10 11]{7} [1 2 3 4 5 7 8 9 10 11] 6{2} [1 2 3 4 5 7 8 9 10 11]*) | ([1 2 3 4 5 7 8 9 10 11]* 6{1} [1 2 3 4 5 7 8 9 10 11]{2} [1 2 3 4 5 7 8 9 10 11] [1 2 3 4 5 7 8 9 10 11]{7} 6{2} [1 2 3 4 5 7 8 9 10 11]{1} [1 2 3 4 5 7 8 9 10 11] [1 2 3 4 5 7 8 9 10 11]{6} 6{4} [1 2 3 4 5 7 8 9 10 11] [1 2 3 4 5 7 8 9 10 11]{5} 6{5} [1 2 3 4 5 7 8 9 10 11]*) | ([1 2 3 4 5 7 8 9 10 11]* 6{2} [1 2 3 4 5 7 8 9 10 11] [1 2 3 4 5 7 8 9 10 11]{7} 6{3} [1 2 3 4 5 7 8 9 10 11] [1 2 3 4 5 7 8 9 10 11]{6} 6{4} [1 2 3 4 5 7 8 9 10 11] [1 2 3 4 5 7 8 9 10 11]{8} 6{2} [1 2 3 4 5 7 8 9 10 11] [1 2 3 4 5 7 8 9 10 11]{9} 6{1} [1 2 3 4 5 7 8 9 10 11]*) )",
    "( ([1 2 3 4 5 6 8 9 10 11]* 7{5} [1 2 3 4 5 6 8 9 10 11]{5} [1 2 3 4 5 6 8 9 10 11] [1 2 3 4 5 6 8 9 10 11]{2} 7{4} [1 2 3 4 5 6 8 9 10 11]{4} [1 2 3 4 5 6 8 9 10 11] [1 2 3 4 5 6 8 9 10 11]{3} 7{4} [1 2 3 4 5 6 8 9 10 11]{3} [1 2 3 4 5 6 8 9 10 11] [1 2 3 4 5 6 8 9 10 11]{5} 7{2} [1 2 3 4 5 6 8 9 10 11]*) | ([1 2 3 4 5 6 8 9 10 11]* 7{1} [1 2 3 4 5 6 8 9 10 11] [1 2 3 4 5 6 8 9 10 11]{9} 7{1} [1 2 3 4 5 6 8 9 10 11] [1 2 3 4 5 6 8 9 10 11]{8} 7{2} [1 2 3 4 5 6 8 9 10 11] [1 2 3 4 5 6 8 9 10 11]{7} 7{3} [1 2 3 4 5 6 8 9 10 11] [1 2 3 4 5 6 8 9 10 11]{7} 7{3} [1 2 3 4 5 6 8 9 10 11] [1 2 3 4 5 6 8 9 10 11]{6} 7{3} [1 2 3 4 5 6 8 9 10 11]{1} [1 2 3 4 5 6 8 9 10 11] [1 2 3 4 5 6 8 9 10 11]{6} 7{2} [1 2 3 4 5 6 8 9 10 11]*) | ([1 2 3 4 5 6 8 9 10 11]* 7{2} [1 2 3 4 5 6 8 9 10 11]{5} [1 2 3 4 5 6 8 9 10 11] [1 2 3 4 5 6 8 9 10 11]{3} 7{4} [1 2 3 4 5 6 8 9 10 11]{3} [1 2 3 4 5 6 8 9 10 11] [1 2 3 4 5 6 8 9 10 11]{4} 7{4} [1 2 3 4 5 6 8 9 10 11]{2} [1 2 3 4 5 6 8 9 10 11] [1 2 3 4 5 6 8 9 10 11]{5} 7{5} [1 2 3 4 5 6 8 9 10 11]*) | ([1 2 3 4 5 6 8 9 10 11]* 7{2} [1 2 3 4 5 6 8 9 10 11]{6} [1 2 3 4 5 6 8 9 10 11] [1 2 3 4 5 6 8 9 10 11]{1} 7{3} [1 2 3 4 5 6 8 9 10 11]{6} [1 2 3 4 5 6 8 9 10 11] 7{3} [1 2 3 4 5 6 8 9 10 11]{7} [1 2 3 4 5 6 8 9 10 11] 7{3} [1 2 3 4 5 6 8 9 10 11]{7} [1 2 3 4 5 6 8 9 10 11] 7{2} [1 2 3 4 5 6 8 9 10 11]{8} [1 2 3 4 5 6 8 9 10 11] 7{1} [1 2 3 4 5 6 8 9 10 11]{9} [1 2 3 4 5 6 8 9 10 11] 7{1} [1 2 3 4 5 6 8 9 10 11]*) | ([1 2 3 4 5 6 8 9 10 11]* 7{5} [1 2 3 4 5 6 8 9 10 11] [1 2 3 4 5 6 8 9 10 11]{4} 7{4} [1 2 3 4 5 6 8 9 10 11]{2} [1 2 3 4 5 6 8 9 10 11] [1 2 3 4 5 6 8 9 10 11]{3} 7{4} [1 2 3 4 5 6 8 9 10 11]{3} [1 2 3 4 5 6 8 9 10 11] [1 2 3 4 5 6 8 9 10 11]{3} 7{2} [1 2 3 4 5 6 8 9 10 11]*) | ([1 2 3 4 5 6 8 9 10 11]* 7{1} [1 2 3 4 5 6 8 9 10 11]{9} [1 2 3 4 5 6 8 9 10 11] 7{1} [1 2 3 4 5 6 8 9 10 11]{9} [1 2 3 4 5 6 8 9 10 11] 7{2} [1 2 3 4 5 6 8 9 10 11]{8} [1 2 3 4 5 6 8 9 10 11] 7{3} [1 2 3 4 5 6 8 9 10 11]{7} [1 2 3 4 5 6 8 9 10 11] 7{3} [1 2 3 4 5 6 8 9 10 11]{7} [1 2 3 4 5 6 8 9 10 11] [1 2 3 4 5 6 8 9 10 11]{1} 7{3} [1 2 3 4 5 6 8 9 10 11]{6} [1 2 3 4 5 6 8 9 10 11] [1 2 3 4 5 6 8 9 10 11]{2} 7{2} [1 2 3 4 5 6 8 9 10 11]*) | ([1 2 3 4 5 6 8 9 10 11]* 7{2} [1 2 3 4 5 6 8 9 10 11]{3} [1 2 3 4 5 6 8 9 10 11] [1 2 3 4 5 6 8 9 10 11]{3} 7{4} [1 2 3 4 5 6 8 9 10 11]{3} [1 2 3 4 5 6 8 9 10 11] [1 2 3 4 5 6 8 9 10 11]{2} 7{4} [1 2 3 4 5 6 8 9 10 11]{4} [1 2 3 4 5 6 8 9 10 11] 7{5} [1 2 3 4 5 6 8 9 10 11]*) | ([1 2 3 4 5 6 8 9 10 11]* 7{2} [1 2 3 4 5 6 8 9 10 11]{2} [1 2 3 4 5 6 8 9 10 11] [1 2 3 4 5 6 8 9 10 11]{6} 7{3} [1 2 3 4 5 6 8 9 10 11]{1} [1 2 3 4 5 6 8 9 10 11] [1 2 3 4 5 6 8 9 10 11]{7} 7{3} [1 2 3 4 5 6 8 9 10 11] [1 2 3 4 5 6 8 9 10 11]{7} 7{3} [1 2 3 4 5 6 8 9 10 11] [1 2 3 4 5 6 8 9 10 11]{8} 7{2} [1 2 3 4 5 6 8 9 10 11] [1 2 3 4 5 6 8 9 10 11]{9} 7{1} [1 2 3 4 5 6 8 9 10 11] [1 2 3 4 5 6 8 9 10 11]{9} 7{1} [1 2 3 4 5 6 8 9 10 11]*) )",
    "( ([1 2 3 4 5 6 7 9 10 11]* 8{1} [1 2 3 4 5 6 7 9 10 11]{6} [1 2 3 4 5 6 7 9 10 11] [1 2 3 4 5 6 7 9 10 11]{3} 8{1} [1 2 3 4 5 6 7 9 10 11]{6} [1 2 3 4 5 6 7 9 10 11] [1 2 3 4 5 6 7 9 10 11]{2} 8{5} [1 2 3 4 5 6 7 9 10 11]{3} [1 2 3 4 5 6 7 9 10 11] 8{7} [1 2 3 4 5 6 7 9 10 11]*) | ([1 2 3 4 5 6 7 9 10 11]* 8{1} [1 2 3 4 5 6 7 9 10 11]{9} [1 2 3 4 5 6 7 9 10 11] 8{1} [1 2 3 4 5 6 7 9 10 11]{9} [1 2 3 4 5 6 7 9 10 11] 8{2} [1 2 3 4 5 6 7 9 10 11]{8} [1 2 3 4 5 6 7 9 10 11] 8{4} [1 2 3 4 5 6 7 9 10 11]{6} [1 2 3 4 5 6 7 9 10 11] 8{2} [1 2 3 4 5 6 7 9 10 11]{8} [1 2 3 4 5 6 7 9 10 11] 8{2} [1 2 3 4 5 6 7 9 10 11]{8} [1 2 3 4 5 6 7 9 10 11] 8{2} [1 2 3 4 5 6 7 9 10 11]*) | ([1 2 3 4 5 6 7 9 10 11]* 8{7} [1 2 3 4 5 6 7 9 10 11] [1 2 3 4 5 6 7 9 10 11]{3} 8{5} [1 2 3 4 5 6 7 9 10 11]{2} [1 2 3 4 5 6 7 9 10 11] [1 2 3 4 5 6 7 9 10 11]{6} 8{1} [1 2 3 4 5 6 7 9 10 11]{3} [1 2 3 4 5 6 7 9 10 11] [1 2 3 4 5 6 7 9 10 11]{6} 8{1} [1 2 3 4 5 6 7 9 10 11]*) | ([1 2 3 4 5 6 7 9 10 11]* 8{2} [1 2 3 4 5 6 7 9 10 11] [1 2 3 4 5 6 7 9 10 11]{8} 8{2} [1 2 3 4 5 6 7 9 10 11] [1 2 3 4 5 6 7 9 10 11]{8} 8{2} [1 2 3 4 5 6 7 9 10 11] [1 2 3 4 5 6 7 9 10 11]{6} 8{4} [1 2 3 4 5 6 7 9 10 11] [1 2 3 4 5 6 7 9 10 11]{8} 8{2} [1 2 3 4 5 6 7 9 10 11] [1 2 3 4 5 6 7 9 10 11]{9} 8{1} [1 2 3 4 5 6 7 9 10 11] [1 2 3 4 5 6 7 9 10 11]{9} 8{1} [1 2 3 4 5 6 7 9 10 11]*) | ([1 2 3 4 5 6 7 9 10 11]* 8{1} [1 2 3 4 5 6 7 9 10 11]{3} [1 2 3 4 5 6 7 9 10 11] [1 2 3 4 5 6 7 9 10 11]{6} 8{1} [1 2 3 4 5 6 7 9 10 11]{3} [1 2 3 4 5 6 7 9 10 11] [1 2 3 4 5 6 7 9 10 11]{3} 8{5} [1 2 3 4 5 6 7 9 10 11]{2} [1 2 3 4 5 6 7 9 10 11] [1 2 3 4 5 6 7 9 10 11]{3} 8{7} [1 2 3 4 5 6 7 9 10 11]*) | ([1 2 3 4 5 6 7 9 10 11]* 8{1} [1 2 3 4 5 6 7 9 10 11] [1 2 3 4 5 6 7 9 10 11]{9} 8{1} [1 2 3 4 5 6 7 9 10 11] [1 2 3 4 5 6 7 9 10 11]{8} 8{2} [1 2 3 4 5 6 7 9 10 11] [1 2 3 4 5 6 7 9 10 11]{6} 8{4} [1 2 3 4 5 6 7 9 10 11] [1 2 3 4 5 6 7 9 10 11]{8} 8{2} [1 2 3 4 5 6 7 9 10 11] [1 2 3 4 5 6 7 9 10 11]{8} 8{2} [1 2 3 4 5 6 7 9 10 11] [1 2 3 4 5 6 7 9 10 11]{8} 8{2} [1 2 3 4 5 6 7 9 10 11]*) | ([1 2 3 4 5 6 7 9 10 11]* 8{7} [1 2 3 4 5 6 7 9 10 11]{3} [1 2 3 4 5 6 7 9 10 11] [1 2 3 4 5 6 7 9 10 11]{2} 8{5} [1 2 3 4 5 6 7 9 10 11]{3} [1 2 3 4 5 6 7 9 10 11] [1 2 3 4 5 6 7 9 10 11]{3} 8{1} [1 2 3 4 5 6 7 9 10 11]{6} [1 2 3 4 5 6 7 9 10 11] [1 2 3 4 5 6 7 9 10 11]{3} 8{1} [1 2 3 4 5 6 7 9 10 11]*) | ([1 2 3 4 5 6 7 9 10 11]* 8{2} [1 2 3 4 5 6 7 9 10 11]{8} [1 2 3 4 5 6 7 9 10 11] 8{2} [1 2 3 4 5 6 7 9 10 11]{8} [1 2 3 4 5 6 7 9 10 11] 8{2} [1 2 3 4 5 6 7 9 10 11]{8} [1 2 3 4 5 6 7 9 10 11] 8{4} [1 2 3 4 5 6 7 9 10 11]{6} [1 2 3 4 5 6 7 9 10 11] 8{2} [1 2 3 4 5 6 7 9 10 11]{8} [1 2 3 4 5 6 7 9 10 11] 8{1} [1 2 3 4 5 6 7 9 10 11]{9} [1 2 3 4 5 6 7 9 10 11] 8{1} [1 2 3 4 5 6 7 9 10 11]*) )",
    "( ([1 2 3 4 5 6 7 8 10 11]* 9{3} [1 2 3 4 5 6 7 8 10 11] [1 2 3 4 5 6 7 8 10 11]{7} 9{3} [1 2 3 4 5 6 7 8 10 11] [1 2 3 4 5 6 7 8 10 11]{7} 9{3} [1 2 3 4 5 6 7 8 10 11]*) | ([1 2 3 4 5 6 7 8 10 11]* 9{3} [1 2 3 4 5 6 7 8 10 11]{7} [1 2 3 4 5 6 7 8 10 11] 9{3} [1 2 3 4 5 6 7 8 10 11]{7} [1 2 3 4 5 6 7 8 10 11] 9{3} [1 2 3 4 5 6 7 8 10 11]*) )",
    "( ([1 2 3 4 5 6 7 8 9 11]* 10{2} [1 2 3 4 5 6 7 8 9 11]{8} [1 2 3 4 5 6 7 8 9 11] 10{3} [1 2 3 4 5 6 7 8 9 11]{7} [1 2 3 4 5 6 7 8 9 11] 10{5} [1 2 3 4 5 6 7 8 9 11]{5} [1 2 3 4 5 6 7 8 9 11] [1 2 3 4 5 6 7 8 9 11]{2} 10{3} [1 2 3 4 5 6 7 8 9 11]*) | ([1 2 3 4 5 6 7 8 9 11]* 10{3} [1 2 3 4 5 6 7 8 9 11]{1} [1 2 3 4 5 6 7 8 9 11] [1 2 3 4 5 6 7 8 9 11]{6} 10{3} [1 2 3 4 5 6 7 8 9 11]{1} [1 2 3 4 5 6 7 8 9 11] [1 2 3 4 5 6 7 8 9 11]{5} 10{3} [1 2 3 4 5 6 7 8 9 11]{2} [1 2 3 4 5 6 7 8 9 11] [1 2 3 4 5 6 7 8 9 11]{5} 10{2} [1 2 3 4 5 6 7 8 9 11]{3} [1 2 3 4 5 6 7 8 9 11] [1 2 3 4 5 6 7 8 9 11]{5} 10{2} [1 2 3 4 5 6 7 8 9 11]*) | ([1 2 3 4 5 6 7 8 9 11]* 10{3} [1 2 3 4 5 6 7 8 9 11]{2} [1 2 3 4 5 6 7 8 9 11] [1 2 3 4 5 6 7 8 9 11]{5} 10{5} [1 2 3 4 5 6 7 8 9 11] [1 2 3 4 5 6 7 8 9 11]{7} 10{3} [1 2 3 4 5 6 7 8 9 11] [1 2 3 4 5 6 7 8 9 11]{8} 10{2} [1 2 3 4 5 6 7 8 9 11]*) | ([1 2 3 4 5 6 7 8 9 11]* 10{2} [1 2 3 4 5 6 7 8 9 11]{5} [1 2 3 4 5 6 7 8 9 11] [1 2 3 4 5 6 7 8 9 11]{3} 10{2} [1 2 3 4 5 6 7 8 9 11]{5} [1 2 3 4 5 6 7 8 9 11] [1 2 3 4 5 6 7 8 9 11]{2} 10{3} [1 2 3 4 5 6 7 8 9 11]{5} [1 2 3 4 5 6 7 8 9 11] [1 2 3 4 5 6 7 8 9 11]{1} 10{3} [1 2 3 4 5 6 7 8 9 11]{6} [1 2 3 4 5 6 7 8 9 11] [1 2 3 4 5 6 7 8 9 11]{1} 10{3} [1 2 3 4 5 6 7 8 9 11]*) | ([1 2 3 4 5 6 7 8 9 11]* 10{2} [1 2 3 4 5 6 7 8 9 11] [1 2 3 4 5 6 7 8 9 11]{7} 10{3} [1 2 3 4 5 6 7 8 9 11] [1 2 3 4 5 6 7 8 9 11]{5} 10{5} [1 2 3 4 5 6 7 8 9 11] [1 2 3 4 5 6 7 8 9 11]{5} 10{3} [1 2 3 4 5 6 7 8 9 11]*) | ([1 2 3 4 5 6 7 8 9 11]* 10{3} [1 2 3 4 5 6 7 8 9 11]{6} [1 2 3 4 5 6 7 8 9 11] [1 2 3 4 5 6 7 8 9 11]{1} 10{3} [1 2 3 4 5 6 7 8 9 11]{6} [1 2 3 4 5 6 7 8 9 11] [1 2 3 4 5 6 7 8 9 11]{2} 10{3} [1 2 3 4 5 6 7 8 9 11]{5} [1 2 3 4 5 6 7 8 9 11] [1 2 3 4 5 6 7 8 9 11]{3} 10{2} [1 2 3 4 5 6 7 8 9 11]{5} [1 2 3 4 5 6 7 8 9 11] [1 2 3 4 5 6 7 8 9 11]{3} 10{2} [1 2 3 4 5 6 7 8 9 11]*) | ([1 2 3 4 5 6 7 8 9 11]* 10{3} [1 2 3 4 5 6 7 8 9 11]{5} [1 2 3 4 5 6 7 8 9 11] 10{5} [1 2 3 4 5 6 7 8 9 11]{5} [1 2 3 4 5 6 7 8 9 11] 10{3} [1 2 3 4 5 6 7 8 9 11]{7} [1 2 3 4 5 6 7 8 9 11] 10{2} [1 2 3 4 5 6 7 8 9 11]*) | ([1 2 3 4 5 6 7 8 9 11]* 10{2} [1 2 3 4 5 6 7 8 9 11]{3} [1 2 3 4 5 6 7 8 9 11] [1 2 3 4 5 6 7 8 9 11]{5} 10{2} [1 2 3 4 5 6 7 8 9 11]{3} [1 2 3 4 5 6 7 8 9 11] [1 2 3 4 5 6 7 8 9 11]{5} 10{3} [1 2 3 4 5 6 7 8 9 11]{2} [1 2 3 4 5 6 7 8 9 11] [1 2 3 4 5 6 7 8 9 11]{6} 10{3} [1 2 3 4 5 6 7 8 9 11]{1} [1 2 3 4 5 6 7 8 9 11] [1 2 3 4 5 6 7 8 9 11]{6} 10{3} [1 2 3 4 5 6 7 8 9 11]*) )",
];
